(set-info :source |printed by MathSAT|)
(declare-fun |!{$(in_main#0)<N>}| () Int)
(declare-fun |!{$(in_main#0)<N>}.next| () Int)
(declare-fun |!{$(in_main#0)<i>}| () Int)
(declare-fun |!{$(in_main#0)<i>}.next| () Int)
(declare-fun |!{$(in_main#0)<k>}| () Int)
(declare-fun |!{$(in_main#0)<k>}.next| () Int)
(declare-fun |!{$(in_main#0)<a.1>}| () (Array Int Int))
(declare-fun |!{$(in_main#0)<a.1>}.next| () (Array Int Int))
(declare-fun |!{$(in_main#0)<$(in___VERIFIER_nondet_int#0)<h#<__VERIFIER_nondet_int.return>>>}| () Int)
(declare-fun !pc () Int)
(declare-fun !pc.next () Int)
(declare-fun |%{$(in_main#0)<k>}#1| () Int)
(declare-fun |%{$(in_main#0)<a.1>}#1| () (Array Int Int))
(define-fun .def_26 () Int (! !pc :next !pc.next))
(define-fun .def_29 () Bool (! (= .def_26 2) :init true))
(define-fun .def_128 () Bool (= .def_26 36))
(define-fun .def_97 () Bool (= !pc.next 50))
(define-fun .def_131 () Bool (and .def_97 .def_128))
(define-fun .def_124 () Bool (= |!{$(in_main#0)<k>}.next| 0))
(define-fun .def_10 () Int (! |!{$(in_main#0)<i>}| :next |!{$(in_main#0)<i>}.next|))
(define-fun .def_72 () Bool (= .def_10 |!{$(in_main#0)<i>}.next|))
(define-fun .def_8 () Int (! |!{$(in_main#0)<N>}| :next |!{$(in_main#0)<N>}.next|))
(define-fun .def_70 () Bool (= .def_8 |!{$(in_main#0)<N>}.next|))
(define-fun .def_79 () Bool (and .def_70 .def_72))
(define-fun .def_125 () Bool (and .def_79 .def_124))
(define-fun .def_14 () (Array Int Int) (! |!{$(in_main#0)<a.1>}| :next |!{$(in_main#0)<a.1>}.next|))
(define-fun .def_76 () Bool (= .def_14 |!{$(in_main#0)<a.1>}.next|))
(define-fun .def_126 () Bool (and .def_76 .def_125))
(define-fun .def_108 () Bool (<= .def_10 .def_8))
(define-fun .def_115 () Bool (not .def_108))
(define-fun .def_127 () Bool (and .def_115 .def_126))
(define-fun .def_132 () Bool (and .def_127 .def_131))
(define-fun .def_53 () Bool (= !pc.next 36))
(define-fun .def_129 () Bool (and .def_53 .def_128))
(define-fun .def_109 () Int (* 2 .def_10))
(define-fun .def_112 () Int (+ .def_109 1))
(define-fun .def_110 () (Array Int Int) (store .def_14 .def_109 0))
(define-fun .def_113 () (Array Int Int) (store .def_110 .def_112 0))
(define-fun .def_121 () Bool (= |!{$(in_main#0)<a.1>}.next| .def_113))
(define-fun .def_116 () Int (* (- 1) |!{$(in_main#0)<i>}.next|))
(define-fun .def_117 () Int (+ .def_10 .def_116))
(define-fun .def_118 () Bool (= .def_117 (- 1)))
(define-fun .def_119 () Bool (and .def_70 .def_118))
(define-fun .def_12 () Int (! |!{$(in_main#0)<k>}| :next |!{$(in_main#0)<k>}.next|))
(define-fun .def_74 () Bool (= .def_12 |!{$(in_main#0)<k>}.next|))
(define-fun .def_120 () Bool (and .def_74 .def_119))
(define-fun .def_122 () Bool (and .def_120 .def_121))
(define-fun .def_123 () Bool (and .def_108 .def_122))
(define-fun .def_130 () Bool (and .def_123 .def_129))
(define-fun .def_133 () Bool (or .def_130 .def_132))
(define-fun .def_101 () Bool (= !pc.next 0))
(define-fun .def_92 () Bool (= .def_26 50))
(define-fun .def_102 () Bool (and .def_92 .def_101))
(define-fun .def_58 () Int (* (- 1) .def_12))
(define-fun .def_56 () Int (* 2 .def_8))
(define-fun .def_59 () Int (+ .def_56 .def_58))
(define-fun .def_60 () Bool (<= 0 .def_59))
(define-fun .def_69 () Bool (not .def_60))
(define-fun .def_87 () Bool (and .def_69 .def_70))
(define-fun .def_88 () Bool (and .def_72 .def_87))
(define-fun .def_89 () Bool (and .def_74 .def_88))
(define-fun .def_90 () Bool (and .def_76 .def_89))
(define-fun .def_103 () Bool (and .def_90 .def_102))
(define-fun .def_98 () Bool (and .def_92 .def_97))
(define-fun .def_80 () Int (* (- 1) |!{$(in_main#0)<k>}.next|))
(define-fun .def_81 () Int (+ .def_12 .def_80))
(define-fun .def_82 () Bool (= .def_81 (- 1)))
(define-fun .def_83 () Bool (and .def_79 .def_82))
(define-fun .def_84 () Bool (and .def_76 .def_83))
(define-fun .def_61 () Int (select .def_14 .def_12))
(define-fun .def_62 () Bool (<= 0 .def_61))
(define-fun .def_63 () Int (ite .def_62 1 0))
(define-fun .def_64 () Bool (= .def_63 0))
(define-fun .def_65 () Bool (not .def_64))
(define-fun .def_85 () Bool (and .def_65 .def_84))
(define-fun .def_86 () Bool (and .def_60 .def_85))
(define-fun .def_99 () Bool (and .def_86 .def_98))
(define-fun .def_94 () Bool (= !pc.next 70))
(define-fun .def_95 () Bool (and .def_92 .def_94))
(define-fun .def_71 () Bool (and .def_64 .def_70))
(define-fun .def_73 () Bool (and .def_71 .def_72))
(define-fun .def_75 () Bool (and .def_73 .def_74))
(define-fun .def_77 () Bool (and .def_75 .def_76))
(define-fun .def_78 () Bool (and .def_60 .def_77))
(define-fun .def_96 () Bool (and .def_78 .def_95))
(define-fun .def_100 () Bool (or .def_96 .def_99))
(define-fun .def_104 () Bool (or .def_100 .def_103))
(define-fun .def_54 () Bool (and .def_29 .def_53))
(define-fun .def_49 () Bool (= |!{$(in_main#0)<a.1>}.next| |%{$(in_main#0)<a.1>}#1|))
(define-fun .def_47 () Bool (= |!{$(in_main#0)<k>}.next| |%{$(in_main#0)<k>}#1|))
(define-fun .def_45 () Bool (= |!{$(in_main#0)<i>}.next| 0))
(define-fun .def_44 () Bool (= |!{$(in_main#0)<N>}.next| |!{$(in_main#0)<$(in___VERIFIER_nondet_int#0)<h#<__VERIFIER_nondet_int.return>>>}|))
(define-fun .def_46 () Bool (and .def_44 .def_45))
(define-fun .def_48 () Bool (and .def_46 .def_47))
(define-fun .def_50 () Bool (and .def_48 .def_49))
(define-fun .def_40 () Bool (<= 0 |!{$(in_main#0)<$(in___VERIFIER_nondet_int#0)<h#<__VERIFIER_nondet_int.return>>>}|))
(define-fun .def_41 () Int (ite .def_40 1 0))
(define-fun .def_42 () Bool (= .def_41 0))
(define-fun .def_43 () Bool (not .def_42))
(define-fun .def_51 () Bool (and .def_43 .def_50))
(define-fun .def_55 () Bool (and .def_51 .def_54))
(define-fun .def_105 () Bool (or .def_55 .def_104))
(define-fun .def_134 () Bool (! (or .def_105 .def_133) :trans true))
(define-fun .def_106 () Bool (= .def_26 70))
(define-fun .def_135 () Bool (! (not .def_106) :invar-property 0 :invar-property-name ||))
(assert true)
